results-backup/makespan exagerated/results-360s-mipfocus1/mps/SNT_01_deadline.mps
NAME F-JSSP-SDST-SC-DL-ID
ROWS
 N  OBJ
 E  c0      
 E  c1      
 E  c2      
 E  c3      
 L  c4      
 L  c5      
 L  c6      
 L  c7      
 L  c8      
 L  c9      
 L  c10     
 L  c11     
 G  c12     
 G  c13     
 G  c14     
 G  c15     
 G  c16     
 G  c17     
 G  c18     
 G  c19     
 G  c20     
 G  c21     
 G  c22     
 G  c23     
 G  c24     
 G  c25     
 G  c26     
 G  c27     
 G  c28     
 G  c29     
 G  c30     
 G  c31     
 G  c32     
 G  c33     
 G  c34     
 G  c35     
 G  c36     
 G  c37     
 G  c38     
 G  c39     
 G  c40     
 G  c41     
 G  c42     
 G  c43     
 G  c44     
 G  c45     
 G  c46     
 G  c47     
 G  c48     
 G  c49     
 G  c50     
 G  c51     
 G  c52     
 G  c53     
 G  c54     
 G  c55     
 L  c56     
 G  c57     
 L  c58     
 G  c59     
 L  c60     
 G  c61     
 L  c62     
 G  c63     
 L  c64     
 G  c65     
 L  c66     
 G  OF_constraint
COLUMNS
    MARKER    'MARKER'                 'INTORG'
    B0(10)    c0        1
    B0(10)    c4        -65000
    B0(10)    c12       -25
    B0(10)    c13       -65025
    B0(10)    c14       -25
    B0(10)    c15       -65000
    B0(10)    c16       -65000
    B0(10)    c19       -65000
    B0(10)    c20       -65000
    B0(10)    c36       -8
    B1(10)    c0        1
    B1(10)    c5        -65000
    B1(10)    c12       -37
    B1(10)    c13       -37
    B1(10)    c14       -65037
    B1(10)    c17       -65000
    B1(10)    c18       -65000
    B1(10)    c21       -65000
    B1(10)    c22       -65000
    B1(10)    c38       -8
    B2(10)    c1        1
    B2(10)    c6        -65000
    B2(10)    c13       -65000
    B2(10)    c23       -65000
    B2(10)    c24       -65000
    B2(10)    c27       -65000
    B2(10)    c28       -65000
    B2(10)    c40       -8
    B2(10)    c55       32
    B2(10)    c56       32
    B3(10)    c1        1
    B3(10)    c7        -65000
    B3(10)    c14       -65000
    B3(10)    c25       -65000
    B3(10)    c26       -65000
    B3(10)    c29       -65000
    B3(10)    c30       -65000
    B3(10)    c42       -8
    B3(10)    c57       24
    B3(10)    c58       24
    B4(13)    c2        1
    B4(13)    c8        -65000
    B4(13)    c15       -65000
    B4(13)    c16       -65000
    B4(13)    c23       -65000
    B4(13)    c24       -65000
    B4(13)    c31       -65000
    B4(13)    c32       -65000
    B4(13)    c44       -8
    B4(13)    c51       -45
    B4(13)    c52       -45
    B4(13)    c59       45
    B4(13)    c60       45
    B5(13)    c2        1
    B5(13)    c9        -65000
    B5(13)    c17       -65000
    B5(13)    c18       -65000
    B5(13)    c25       -65000
    B5(13)    c26       -65000
    B5(13)    c33       -65000
    B5(13)    c34       -65000
    B5(13)    c46       -8
    B5(13)    c51       -65
    B5(13)    c52       -65
    B5(13)    c61       65
    B5(13)    c62       65
    B6(13)    c3        1
    B6(13)    c10       -65000
    B6(13)    c19       -65000
    B6(13)    c20       -65000
    B6(13)    c27       -65000
    B6(13)    c28       -65000
    B6(13)    c31       -65000
    B6(13)    c32       -65000
    B6(13)    c48       -8
    B6(13)    c53       -21
    B6(13)    c54       -21
    B6(13)    c63       21
    B6(13)    c64       21
    B7(13)    c3        1
    B7(13)    c11       -65000
    B7(13)    c21       -65000
    B7(13)    c22       -65000
    B7(13)    c29       -65000
    B7(13)    c30       -65000
    B7(13)    c33       -65000
    B7(13)    c34       -65000
    B7(13)    c50       -8
    B7(13)    c53       -65
    B7(13)    c54       -65
    B7(13)    c65       65
    B7(13)    c66       65
    B8(0)     OBJ       0
    B9(0)     OBJ       0
    B10(4)    c15       -65000
    B10(4)    c16       65000
    B10(4)    c17       -65000
    B10(4)    c18       65000
    B11(4)    c19       -65000
    B11(4)    c20       65000
    B11(4)    c21       -65000
    B11(4)    c22       65000
    B12(0)    OBJ       0
    B13(0)    OBJ       0
    B14(4)    c23       -65000
    B14(4)    c24       65000
    B14(4)    c25       -65000
    B14(4)    c26       65000
    B15(4)    c27       -65000
    B15(4)    c28       65000
    B15(4)    c29       -65000
    B15(4)    c30       65000
    B16(0)    OBJ       0
    B17(0)    OBJ       0
    B18(0)    OBJ       0
    B19(4)    c31       -65000
    B19(4)    c32       65000
    B19(4)    c33       -65000
    B19(4)    c34       65000
    B20(0)    OBJ       0
    B21(0)    OBJ       0
    B22(0)    OBJ       0
    B23(0)    OBJ       0
    I24(12)   c4        1
    I24(12)   c12       -1
    I24(12)   c13       -1
    I24(12)   c14       -1
    I24(12)   c15       1
    I24(12)   c16       -1
    I24(12)   c19       1
    I24(12)   c20       -1
    I24(12)   c35       1
    I24(12)   c36       1
    I24(12)   c51       1
    I24(12)   c53       1
    I25(12)   c5        1
    I25(12)   c12       -1
    I25(12)   c13       -1
    I25(12)   c14       -1
    I25(12)   c17       1
    I25(12)   c18       -1
    I25(12)   c21       1
    I25(12)   c22       -1
    I25(12)   c37       1
    I25(12)   c38       1
    I25(12)   c52       1
    I25(12)   c54       1
    I26(13)   c6        1
    I26(13)   c12       1
    I26(13)   c13       1
    I26(13)   c14       1
    I26(13)   c23       1
    I26(13)   c24       -1
    I26(13)   c27       1
    I26(13)   c28       -1
    I26(13)   c39       1
    I26(13)   c40       1
    I26(13)   c55       1
    I26(13)   c56       1
    I27(13)   c7        1
    I27(13)   c12       1
    I27(13)   c13       1
    I27(13)   c14       1
    I27(13)   c25       1
    I27(13)   c26       -1
    I27(13)   c29       1
    I27(13)   c30       -1
    I27(13)   c41       1
    I27(13)   c42       1
    I27(13)   c57       1
    I27(13)   c58       1
    I28(14)   c8        1
    I28(14)   c15       -1
    I28(14)   c16       1
    I28(14)   c23       -1
    I28(14)   c24       1
    I28(14)   c31       1
    I28(14)   c32       -1
    I28(14)   c43       1
    I28(14)   c44       1
    I28(14)   c51       -1
    I28(14)   c52       -1
    I28(14)   c59       1
    I28(14)   c60       1
    I29(14)   c9        1
    I29(14)   c17       -1
    I29(14)   c18       1
    I29(14)   c25       -1
    I29(14)   c26       1
    I29(14)   c33       1
    I29(14)   c34       -1
    I29(14)   c45       1
    I29(14)   c46       1
    I29(14)   c51       -1
    I29(14)   c52       -1
    I29(14)   c61       1
    I29(14)   c62       1
    I30(14)   c10       1
    I30(14)   c19       -1
    I30(14)   c20       1
    I30(14)   c27       -1
    I30(14)   c28       1
    I30(14)   c31       -1
    I30(14)   c32       1
    I30(14)   c47       1
    I30(14)   c48       1
    I30(14)   c53       -1
    I30(14)   c54       -1
    I30(14)   c63       1
    I30(14)   c64       1
    I31(14)   c11       1
    I31(14)   c21       -1
    I31(14)   c22       1
    I31(14)   c29       -1
    I31(14)   c30       1
    I31(14)   c33       -1
    I31(14)   c34       1
    I31(14)   c49       1
    I31(14)   c50       1
    I31(14)   c53       -1
    I31(14)   c54       -1
    I31(14)   c65       1
    I31(14)   c66       1
    I32(1)    OBJ       1
    I32(1)    OF_constraint  1
    B33(4)    c55       -65000
    B33(4)    c56       -65000
    B33(4)    OF_constraint  1
    B34(4)    c57       -65000
    B34(4)    c58       -65000
    B34(4)    OF_constraint  9
    B35(4)    c59       -65000
    B35(4)    c60       -65000
    B35(4)    OF_constraint  -45
    B36(4)    c61       -65000
    B36(4)    c62       -65000
    B36(4)    OF_constraint  -65
    B37(4)    c63       -65000
    B37(4)    c64       -65000
    B37(4)    OF_constraint  -21
    B38(4)    c65       -65000
    B38(4)    c66       -65000
    B38(4)    OF_constraint  -65
    MARKER    'MARKER'                 'INTEND'
RHS
    RHS1      c0        1
    RHS1      c1        1
    RHS1      c2        1
    RHS1      c3        1
    RHS1      c13       -129997
    RHS1      c14       -129997
    RHS1      c15       -194952
    RHS1      c16       -129971
    RHS1      c17       -194932
    RHS1      c18       -129959
    RHS1      c19       -194975
    RHS1      c20       -129971
    RHS1      c21       -194932
    RHS1      c22       -129960
    RHS1      c23       -194952
    RHS1      c24       -129964
    RHS1      c25       -194932
    RHS1      c26       -129973
    RHS1      c27       -194975
    RHS1      c28       -129964
    RHS1      c29       -194931
    RHS1      c30       -129973
    RHS1      c31       -194975
    RHS1      c32       -129951
    RHS1      c33       -194932
    RHS1      c34       -129931
    RHS1      c55       -64967
    RHS1      c56       33
    RHS1      c57       -64967
    RHS1      c58       33
    RHS1      c59       -65000
    RHS1      c61       -65000
    RHS1      c63       -65000
    RHS1      c65       -65000
BOUNDS
 BV BND1      B0(10)  
 BV BND1      B1(10)  
 BV BND1      B2(10)  
 BV BND1      B3(10)  
 BV BND1      B4(13)  
 BV BND1      B5(13)  
 BV BND1      B6(13)  
 BV BND1      B7(13)  
 BV BND1      B8(0)   
 BV BND1      B9(0)   
 BV BND1      B10(4)  
 BV BND1      B11(4)  
 BV BND1      B12(0)  
 BV BND1      B13(0)  
 BV BND1      B14(4)  
 BV BND1      B15(4)  
 BV BND1      B16(0)  
 BV BND1      B17(0)  
 BV BND1      B18(0)  
 BV BND1      B19(4)  
 BV BND1      B20(0)  
 BV BND1      B21(0)  
 BV BND1      B22(0)  
 BV BND1      B23(0)  
 LI BND1      I24(12)   0
 LI BND1      I25(12)   0
 LI BND1      I26(13)   0
 LI BND1      I27(13)   0
 LI BND1      I28(14)   0
 LI BND1      I29(14)   0
 LI BND1      I30(14)   0
 LI BND1      I31(14)   0
 LI BND1      I32(1)    0
 BV BND1      B33(4)  
 BV BND1      B34(4)  
 BV BND1      B35(4)  
 BV BND1      B36(4)  
 BV BND1      B37(4)  
 BV BND1      B38(4)  
QCMATRIX   OF_constraint
    I26(13)   B33(4)    -0.5
    B33(4)    I26(13)   -0.5
    I27(13)   B34(4)    -0.5
    B34(4)    I27(13)   -0.5
    I28(14)   B35(4)    -0.5
    B35(4)    I28(14)   -0.5
    I29(14)   B36(4)    -0.5
    B36(4)    I29(14)   -0.5
    I30(14)   B37(4)    -0.5
    B37(4)    I30(14)   -0.5
    I31(14)   B38(4)    -0.5
    B38(4)    I31(14)   -0.5
ENDATA
