results/log/SNT_01_deadline.log

Gurobi 10.0.1 (win64) logging started Fri Jun 16 16:25:48 2023

Set parameter LogFile to value "results/log/SNT_01_deadline.log"
Gurobi Optimizer version 10.0.1 build v10.0.1rc0 (win64)

CPU model: AMD Ryzen 7 3700X 8-Core Processor, instruction set [SSE2|AVX|AVX2]
Thread count: 8 physical cores, 16 logical processors, using up to 16 threads

Optimize a model with 67 rows, 39 columns and 224 nonzeros
Model fingerprint: 0x7bc45b1b
Model has 1 quadratic constraint
Variable types: 0 continuous, 39 integer (30 binary)
Coefficient statistics:
  Matrix range     [1e+00, 7e+04]
  QMatrix range    [1e+00, 1e+00]
  QLMatrix range   [1e+00, 7e+01]
  Objective range  [1e+00, 1e+00]
  Bounds range     [1e+00, 1e+00]
  RHS range        [1e+00, 2e+05]
Presolve removed 18 rows and 15 columns
Presolve time: 0.00s

Explored 0 nodes (0 simplex iterations) in 0.00 seconds (0.00 work units)
Thread count was 1 (of 16 available processors)

Solution count 0

Model is infeasible
Best objective -, best bound -, gap -
Warning: variable name "y[job:0, stage:0, machine:1]" has a space
Warning: constraint name "precedence between 1,0 to 0,0 if x_[j,l,h,z,i]=1" has a space
Warning: to let Gurobi read it back, use rlp format
Warning: variable name "y[job:0, stage:0, machine:1]" has a space
Warning: constraint name "precedence between 1,0 to 0,0 if x_[j,l,h,z,i]=1" has a space
Warning: default variable names used to write mps file
Warning: default constraint names used to write mps file

Computing Irreducible Inconsistent Subsystem (IIS)...

           Constraints          |            Bounds           |  Runtime
      Min       Max     Guess   |   Min       Max     Guess   |
--------------------------------------------------------------------------
        0        68         -         0         9         -           0s
        6         6         6         2         2         2           0s

IIS computed: 6 constraints, 2 bounds
IIS runtime: 0.01 seconds (0.00 work units)
Warning: variable name "y[job:0, stage:0, machine:1]" has a space
Warning: to let Gurobi read it back, use rlp format
